100
128
5
18
59
53
27
54
2
44
63
6
6
1
47
23
9
17
52
60
48
27
24
7
30
12
14
11
16
10
29
48
50
37
47
36
17
13
48
16
11
11
8
8
4
29
26
28
14
22
36
59
11
52
27
12
38
15
37
23
13
31
9
6
22
58
50
59
13
28
52
12
29
25
37
25
15
55
14
12
21
31
38
14
59
30
17
63
16
5
21
49
34
22
18
33
37
7
40
56
22
50